input = [|15, 2|23, 22|16, 18|6, 28|18, 13|50, 51|36, 1|10, 17|7, 15|46, 7|40, 40|13, 9|32, 24|44, 45|8, 14|30, 47|28, 36|12, 27|41, 29|20, 6|];
V = 52;
A = 20;
E = 73;
edges = [{1, 2, 7}, {8, 1, 2, 3}, {9, 2, 3}, {12, 4, 5}, {13, 4, 5, 6}, {5, 6, 14}, {8, 1, 15, 7}, {2, 7, 8, 9, 16}, {3, 8, 9, 10, 17}, {9, 10, 11}, {18, 10, 11, 12}, {4, 11, 12, 13, 19}, {5, 12, 13, 14, 20}, {21, 13, 14, 6}, {16, 7, 22, 15}, {8, 15, 16, 17, 23}, {16, 17, 9, 24}, {19, 26, 18, 11}, {18, 19, 12, 20}, {13, 19, 20, 21, 27}, {20, 21, 14}, {23, 28, 22, 15}, {16, 22, 23, 24, 29}, {17, 23, 24, 25, 30}, {24, 25, 26, 31}, {32, 25, 26, 18}, {27, 20}, {28, 29, 22}, {34, 23, 28, 29, 30}, {35, 24, 29, 30, 31}, {32, 36, 25, 30, 31}, {32, 33, 37, 26, 31}, {32, 33}, {34, 35, 29}, {34, 35, 36, 41, 30}, {35, 36, 37, 42, 31}, {32, 36, 37}, {44, 38, 39}, {45, 38, 39}, {40, 46}, {48, 41, 42, 35}, {41, 42, 36}, {50, 43, 44}, {38, 43, 44, 45, 51}, {44, 45, 52, 39}, {40, 46, 47}, {48, 46, 47}, {48, 41, 47}, {49, 50}, {49, 50, 43, 51}, {50, 51, 44, 52}, {51, 52, 45}];
maxTime = 13;